12 32 6 10
18 3 10 17 19 18 4 11 6 16 4 3 14 7 20 9 9 3 4 18 18 20 8 14 10 18 11 16 13 5 18 18 
4.99 7.09 1.93 4.82 7.96 4.8 6.99 0.56 1.85 4.79 1.51 0.12 1.13 0.4 7.54 2.31 3.95 7 4.35 4.66 4.25 2.54 4.24 7.31 5.75 3.76 1.11 2.78 5.66 0.93 6.93 3.56 
4.48 3.69 2.98 4.09 7.26 2.32 6.52 5.67 3.52 1.17 0.69 4.29 3.81 1.75 0.9 1.08 2.97 0.77 0.58 1.57 5.83 3.9 6.21 4.73 6.71 1.08 4.26 3.59 5.98 4.07 3.37 0.68 
4.96 6.18 2.04 3.89 3.89 0.3 2.11 0.49 4.97 3.6 7.84 1.97 2.36 3.66 4.27 7.25 2.23 4.26 5.51 6.89 0.52 3.33 5.23 6.32 7.77 4.93 5.72 6.64 0.07 2.44 0.92 4.86 
3.08 7.11 5.8 4.47 7.82 3.07 0.02 7.73 1.57 0.58 0.92 1.09 4.31 6.98 2.45 3.17 7.18 0.68 7.66 1.18 2.74 6.06 3.03 7.65 2.31 2.48 2.23 5.73 0.33 2.51 5.32 2.61 
5.05 5.05 3.65 4.25 1.88 6.34 2.71 5.39 3.28 4.44 6.77 6.3 4.94 6.63 5.7 5.83 3.14 6.73 4.29 1.28 2.27 1.54 2.23 7.51 4.5 5.99 7.35 0.99 0.38 5.36 7.31 3.01 
5.01 7.05 2.25 0.71 6.79 3.87 5.7 0.6 2.27 0.59 4.75 2.81 7.73 7.84 4.58 6.14 4.95 4.82 2.74 0.94 6.86 0.8 7.23 6.56 4.01 7.18 3.14 2.93 1.76 5.58 1.42 4.49 
4 4 4 4 4 4 4 4 4 4 4 4 4 4 4 4 4 4 4 4 4 4 4 4 4 4 4 4 4 4 4 4 
0.57 6.4 6.35 0.98 5.97 2.49 2.28 0.82 2.91 1.75 3.48 6.89 5.6 5.1 7.39 5.72 7.48 7.91 3.6 3.97 2.03 7.91 3.11 2.39 0.06 5.39 6.5 1.91 4.91 2.42 3.27 1.07 
7.61 0.21 5.29 7.09 2.94 1.99 2.99 4.54 7.51 2.55 4.33 6.37 5.64 1.13 7.13 4.55 2.77 0.56 1.42 0.52 1.96 6.75 1.85 4.77 7.94 1.05 4.53 5.82 0.69 2.39 7.03 7.29 
4.46 0.11 2.43 5.73 6.86 3.03 3.18 3.35 3.87 7.69 2.25 2.77 2.06 6.81 6.67 4.38 6.66 6.23 7.14 3.48 7.12 5.76 4.64 0.78 2.1 4.37 3.92 7.01 7.23 5.8 2.3 4.76 
0.93 5.41 3.58 7.45 5.52 2.14 2.16 2.54 5.76 5.08 1.82 0.99 1.16 0.69 5.23 0.56 4.27 2.81 5.2 3.5 4.63 5.45 1.06 0.73 0.17 4.57 6.68 5.04 4.86 4.64 3.62 0.84 
5.16 7.41 5.57 5.39 6.18 5.63 5.62 2.3 4.59 3.23 7.15 1.67 2.07 5.49 5.44 3.54 0.31 6.03 0.74 5.23 7.47 4.25 6.38 5.12 3.28 4.97 4.07 6.32 7.08 6.1 5.47 6.77 
1 1 1 1 1 1 1 1 1 1 1 1 1 1 1 1 1 1 1 1 1 1 1 1 1 1 1 1 1 1 1 1 
1 1 1 1 1 1 1 1 1 1 1 1 1 1 1 1 1 1 1 1 1 1 1 1 1 1 1 1 1 1 1 1 
1 1 1 1 1 1 1 1 1 1 1 1 1 1 1 1 1 1 1 1 1 1 1 1 1 1 1 1 1 1 1 1 
1 1 1 1 1 1 1 1 1 1 1 1 1 1 1 1 1 1 1 1 1 1 1 1 1 1 1 1 1 1 1 1 
1 1 1 1 1 1 1 1 1 1 1 1 1 1 1 1 1 1 1 1 1 1 1 1 1 1 1 1 1 1 1 1 
1 1 1 1 1 1 1 1 1 1 1 1 1 1 1 1 1 1 1 1 1 1 1 1 1 1 1 1 1 1 1 1 
1 1 1 1 1 1 1 1 1 1 1 1 1 1 1 1 1 1 1 1 1 1 1 1 1 1 1 1 1 1 1 1 
1 1 1 1 1 1 1 1 1 1 1 1 1 1 1 1 1 1 1 1 1 1 1 1 1 1 1 1 1 1 1 1 
1 1 1 1 1 1 1 1 1 1 1 1 1 1 1 1 1 1 1 1 1 1 1 1 1 1 1 1 1 1 1 1 
1 1 1 1 1 1 1 1 1 1 1 1 1 1 1 1 1 1 1 1 1 1 1 1 1 1 1 1 1 1 1 1 
1 1 1 1 1 1 1 1 1 1 1 1 1 1 1 1 1 1 1 1 1 1 1 1 1 1 1 1 1 1 1 1 
1 1 1 1 1 1 1 1 1 1 1 1 1 1 1 1 1 1 1 1 1 1 1 1 1 1 1 1 1 1 1 1 
0.01 0.01 0.01 0.01 0.01 0.01 0.01 0.01 0.01 0.01 0.01 0.01 0.01 0.01 0.01 0.01 0.01 0.01 0.01 0.01 0.01 0.01 0.01 0.01 0.01 0.01 0.01 0.01 0.01 0.01 0.01 0.01 
0.02 0.02 0.02 0.02 0.02 0.02 0.02 0.02 0.02 0.02 0.02 0.02 0.02 0.02 0.02 0.02 0.02 0.02 0.02 0.02 0.02 0.02 0.02 0.02 0.02 0.02 0.02 0.02 0.02 0.02 0.02 0.02 
0.03 0.03 0.03 0.03 0.03 0.03 0.03 0.03 0.03 0.03 0.03 0.03 0.03 0.03 0.03 0.03 0.03 0.03 0.03 0.03 0.03 0.03 0.03 0.03 0.03 0.03 0.03 0.03 0.03 0.03 0.03 0.03 
0.04 0.04 0.04 0.04 0.04 0.04 0.04 0.04 0.04 0.04 0.04 0.04 0.04 0.04 0.04 0.04 0.04 0.04 0.04 0.04 0.04 0.04 0.04 0.04 0.04 0.04 0.04 0.04 0.04 0.04 0.04 0.04 
0.05 0.05 0.05 0.05 0.05 0.05 0.05 0.05 0.05 0.05 0.05 0.05 0.05 0.05 0.05 0.05 0.05 0.05 0.05 0.05 0.05 0.05 0.05 0.05 0.05 0.05 0.05 0.05 0.05 0.05 0.05 0.05 
0.06 0.06 0.06 0.06 0.06 0.06 0.06 0.06 0.06 0.06 0.06 0.06 0.06 0.06 0.06 0.06 0.06 0.06 0.06 0.06 0.06 0.06 0.06 0.06 0.06 0.06 0.06 0.06 0.06 0.06 0.06 0.06 
0.07 0.07 0.07 0.07 0.07 0.07 0.07 0.07 0.07 0.07 0.07 0.07 0.07 0.07 0.07 0.07 0.07 0.07 0.07 0.07 0.07 0.07 0.07 0.07 0.07 0.07 0.07 0.07 0.07 0.07 0.07 0.07 
0.2 0.2 0.2 0.2 0.2 0.2 0.2 0.2 0.2 0.2 0.2 0.2 0.2 0.2 0.2 0.2 0.2 0.2 0.2 0.2 0.2 0.2 0.2 0.2 0.2 0.2 0.2 0.2 0.2 0.2 0.2 0.2 
0.4 0.4 0.4 0.4 0.4 0.4 0.4 0.4 0.4 0.4 0.4 0.4 0.4 0.4 0.4 0.4 0.4 0.4 0.4 0.4 0.4 0.4 0.4 0.4 0.4 0.4 0.4 0.4 0.4 0.4 0.4 0.4 
0.6 0.6 0.6 0.6 0.6 0.6 0.6 0.6 0.6 0.6 0.6 0.6 0.6 0.6 0.6 0.6 0.6 0.6 0.6 0.6 0.6 0.6 0.6 0.6 0.6 0.6 0.6 0.6 0.6 0.6 0.6 0.6 
0.8 0.8 0.8 0.8 0.8 0.8 0.8 0.8 0.8 0.8 0.8 0.8 0.8 0.8 0.8 0.8 0.8 0.8 0.8 0.8 0.8 0.8 0.8 0.8 0.8 0.8 0.8 0.8 0.8 0.8 0.8 0.8 
1 1 1 1 1 1 1 1 1 1 1 1 1 1 1 1 1 1 1 1 1 1 1 1 1 1 1 1 1 1 1 1 
